1940.70 0
0 19 20 26 99 17 0
0 62 63 56 78 77 79 76 80 51 0
0 96 91 88 94 98 95 89 93 0
0 61 69 71 72 70 0
0 59 54 46 37 34 48 47 36 31 33 40 39 41 28 30 67 58 32 68 0
0 27 13 83 85 81 82 86 84 87 50 60 29 44 66 65 64 0
0 25 21 15 12 0
0 7 100 6 8 9 2 1 10 5 3 4 16 0
0 52 55 57 38 42 43 35 45 49 53 0
0 24 75 74 73 14 22 0
0 18 92 90 97 23 11 0
